Gurobi Optimizer version 9.1.2 build v9.1.2rc0 (linux64)
Thread count: 36 physical cores, 72 logical processors, using up to 32 threads
Optimize a model with 12 rows, 57 columns and 590 nonzeros
Model fingerprint: 0xf32eec78
Model has 47 quadratic constraints
Coefficient statistics:
  Matrix range     [2e-05, 3e+00]
  QMatrix range    [1e+00, 1e+00]
  QLMatrix range   [1e+00, 1e+00]
  Objective range  [8e-03, 7e-01]
  Bounds range     [1e+00, 1e+00]
  RHS range        [1e+00, 1e+00]
Presolve removed 9 rows and 0 columns

Continuous model is non-convex -- solving as a MIP.

Presolve removed 9 rows and 0 columns
Presolve time: 0.00s
Presolved: 189 rows, 57 columns, 443 nonzeros
Presolved model has 47 bilinear constraint(s)
Variable types: 57 continuous, 0 integer (0 binary)

Root relaxation: objective -1.743721e+00, 44 iterations, 0.00 seconds

    Nodes    |    Current Node    |     Objective Bounds      |     Work
 Expl Unexpl |  Obj  Depth IntInf | Incumbent    BestBd   Gap | It/Node Time

     0     0   -1.74372    0   38          -   -1.74372      -     -    0s
H    0     0                       0.6147548   -1.74372   384%     -    0s
     0     0   -1.64739    0    1    0.61475   -1.64739   368%     -    0s
H    0     0                      -1.6450460   -1.64739  0.14%     -    0s
     0     0     cutoff    0        -1.64505   -1.64505  0.00%     -    0s

Cutting planes:
  RLT: 25
  BQP: 3

Explored 1 nodes (76 simplex iterations) in 0.01 seconds
Thread count was 32 (of 72 available processors)

Solution count 2: -1.64505 0.614755 
No other solutions better than -1.64505

Optimal solution found (tolerance 1.00e-04)
Best objective -1.645045978473e+00, best bound -1.645045978473e+00, gap 0.0000%

User-callback calls 78, time in user-callback 0.00 sec
Gurobi Optimizer version 9.1.2 build v9.1.2rc0 (linux64)
Thread count: 36 physical cores, 72 logical processors, using up to 32 threads
Optimize a model with 24 rows, 120 columns and 2480 nonzeros
Model fingerprint: 0x3d8171ca
Model has 100 quadratic constraints
Coefficient statistics:
  Matrix range     [8e-06, 4e+00]
  QMatrix range    [1e+00, 1e+00]
  QLMatrix range   [1e+00, 1e+00]
  Objective range  [2e-03, 9e-01]
  Bounds range     [1e+00, 1e+00]
  RHS range        [1e+00, 1e+00]
Presolve removed 17 rows and 0 columns

Continuous model is non-convex -- solving as a MIP.

Presolve removed 17 rows and 0 columns
Presolve time: 0.00s
Presolved: 407 rows, 120 columns, 1232 nonzeros
Presolved model has 100 bilinear constraint(s)
Variable types: 120 continuous, 0 integer (0 binary)

Root relaxation: objective -4.834246e+00, 136 iterations, 0.00 seconds

    Nodes    |    Current Node    |     Objective Bounds      |     Work
 Expl Unexpl |  Obj  Depth IntInf | Incumbent    BestBd   Gap | It/Node Time

     0     0   -4.83425    0  100          -   -4.83425      -     -    0s
H    0     0                       2.0326386   -4.83425   338%     -    0s
     0     0   -3.26906    0  100    2.03264   -3.26906   261%     -    0s
H    0     0                       0.3254501   -3.26906  1104%     -    0s
     0     0   -2.82784    0  100    0.32545   -2.82784   969%     -    0s
H    0     0                      -0.4240721   -2.82784   567%     -    0s
     0     0   -2.81673    0  100   -0.42407   -2.81673   564%     -    0s
     0     0   -2.77431    0  100   -0.42407   -2.77431   554%     -    0s
H    0     0                      -0.4727535   -2.77431   487%     -    0s
     0     0   -2.77214    0  100   -0.47275   -2.77214   486%     -    0s
     0     0   -2.76831    0  100   -0.47275   -2.76831   486%     -    0s
     0     0   -2.76739    0  100   -0.47275   -2.76739   485%     -    0s
     0     0   -2.76337    0  100   -0.47275   -2.76337   485%     -    0s
H    0     0                      -2.2544436   -2.76337  22.6%     -    0s
H    0     0                      -2.2636346   -2.76337  22.1%     -    0s
H    0     0                      -2.2897942   -2.76337  20.7%     -    0s
     0     2   -2.76337    0  100   -2.28979   -2.76337  20.7%     -    0s
*  455   208              15      -2.2907912   -2.45887  7.34%  21.7    0s
*  508   266              18      -2.2908903   -2.45887  7.33%  20.3    0s
*  541   266              21      -2.2938966   -2.45887  7.19%  19.5    0s
*  624   332              19      -2.3000260   -2.45887  6.91%  18.1    0s
*  725   380              27      -2.3000345   -2.45887  6.91%  16.3    0s
*  740   380              21      -2.3007619   -2.45887  6.87%  16.0    0s
*  786   380              26      -2.3088021   -2.45887  6.50%  15.4    0s
*  873   501              25      -2.3142793   -2.45887  6.25%  14.3    0s
*  894   501              32      -2.3454604   -2.45887  4.84%  14.1    0s
*  897   501              32      -2.3457645   -2.45887  4.82%  14.1    0s
*  898   501              32      -2.3457801   -2.45887  4.82%  14.1    0s
* 1009   501              23      -2.3510192   -2.45887  4.59%  13.1    0s
* 1209   357              27      -2.3518569   -2.37674  1.06%  11.5    0s
* 1273   246              25      -2.3520886   -2.37674  1.05%  11.0    0s
* 1274   246              25      -2.3520902   -2.37674  1.05%  11.0    0s
* 1338   246              24      -2.3523441   -2.35677  0.19%  10.7    0s
* 1533    37              20      -2.3524112   -2.35407  0.07%   9.5    0s
* 1535    37              21      -2.3524139   -2.35407  0.07%   9.5    0s
* 1536    37              21      -2.3524141   -2.35407  0.07%   9.5    0s
* 1538    37              20      -2.3524258   -2.35407  0.07%   9.5    0s
* 1539    37              20      -2.3524396   -2.35407  0.07%   9.4    0s
* 1559    37              25      -2.3525112   -2.35397  0.06%   9.4    0s
* 1560    37              25      -2.3525826   -2.35397  0.06%   9.4    0s
* 1567    37              18      -2.3525955   -2.35397  0.06%   9.4    0s
* 1569    37              19      -2.3526239   -2.35397  0.06%   9.3    0s
* 1759     9              24      -2.3527060   -2.35294  0.01%   8.4    0s
* 1765     9              19      -2.3527616   -2.35290  0.01%   8.3    0s
* 1766     9              19      -2.3527622   -2.35290  0.01%   8.3    0s
* 1775     9              20      -2.3528329   -2.35287  0.00%   8.3    0s
* 1800     9              21      -2.3528572   -2.35286  0.00%   8.2    0s
* 1801     9              21      -2.3528605   -2.35286  0.00%   8.2    0s

Cutting planes:
  RLT: 52
  BQP: 5
  PSD: 6

Explored 1833 nodes (15248 simplex iterations) in 0.44 seconds
Thread count was 32 (of 72 available processors)

Solution count 10: -2.35286 -2.35286 -2.35283 ... -2.35251

Optimal solution found (tolerance 1.00e-04)
Best objective -2.352860509988e+00, best bound -2.352863341353e+00, gap 0.0001%

User-callback calls 3952, time in user-callback 0.00 sec



objective value: -2.3528605099884174
objective bound: -2.352863341352527
x_opt: [0.0, 1.0, 1.0, 0.0, 1.0, 0.04155373056153975, 0.0, 0.0, 1.0, 1.0, 0.0, 0.0, 0.0, 1.0, 0.0, 0.7941374103912902, 1.0, 0.1827347900933062, 0.0, 0.4387809770244303]
GUROBI solution time: 0.4363260269165039




